solution status: gap limit reached
objective value:                          28502.70521
y#8                                                 1 	(obj:5700)
y#10                                                1 	(obj:5700)
y#11                                                1 	(obj:5700)
y#14                                                1 	(obj:5700)
y#15                                                1 	(obj:5700)
x#1#14                                              1 	(obj:0.02669)
x#2#15                                              1 	(obj:0.01445)
x#3#11                                              1 	(obj:0.07225)
x#4#11                                              1 	(obj:0.02516)
x#5#10                                              1 	(obj:0.00374)
x#6#14                                              1 	(obj:0.05202)
x#7#14                                              1 	(obj:0.01836)
x#8#14                                              1 	(obj:0.02278)
x#9#8                                               1 	(obj:0.10744)
x#10#15                                             1 	(obj:0.10353)
x#11#15                                             1 	(obj:0.051)
x#12#8                                              1 	(obj:0.03791)
x#13#8                                              1 	(obj:0.06137)
x#14#14                                             1 	(obj:0.05287)
x#15#14                                             1 	(obj:0.0051)
x#16#11                                             1 	(obj:0.0374)
x#17#14                                             1 	(obj:0.01547)
x#18#10                                             1 	(obj:0.07242)
x#19#15                                             1 	(obj:0.05916)
x#20#15                                             1 	(obj:0.03196)
x#21#11                                             1 	(obj:0.04947)
x#22#15                                             1 	(obj:0.03757)
x#23#11                                             1 	(obj:0.09112)
x#24#15                                             1 	(obj:0.05202)
x#25#8                                              1 	(obj:0.02193)
x#26#8                                              1 	(obj:0.04913)
x#27#8                                              1 	(obj:0.03077)
x#28#14                                             1 	(obj:0.00425)
x#29#8                                              1 	(obj:0.03842)
x#30#10                                             1 	(obj:0.04097)
x#31#11                                             1 	(obj:0.06885)
x#32#11                                             1 	(obj:0.02941)
x#33#14                                             1 	(obj:0.01768)
x#34#10                                             1 	(obj:0.0085)
x#35#10                                             1 	(obj:0.18207)
x#36#11                                             1 	(obj:0.06664)
x#37#11                                             1 	(obj:0.03332)
x#38#10                                             1 	(obj:0.051)
x#39#15                                             1 	(obj:0.085)
x#40#10                                             1 	(obj:0.04199)
x#41#10                                             1 	(obj:0.02193)
x#42#14                                             1 	(obj:0.07446)
x#43#8                                              1 	(obj:0.05066)
x#44#10                                             1 	(obj:0.03179)
x#45#10                                             1 	(obj:0.05474)
x#46#8                                              1 	(obj:0.01547)
x#47#10                                             1 	(obj:0.01615)
x#48#11                                             1 	(obj:0.03638)
x#49#8                                              1 	(obj:0.034)
x#50#14                                             1 	(obj:0.04352)
x#51#15                                             1 	(obj:0.05593)
x#52#8                                              1 	(obj:0.04284)
x#53#11                                             1 	(obj:0.04641)
x#54#15                                             1 	(obj:0.09826)
x#55#11                                             1 	(obj:0.06817)
x#56#10                                             1 	(obj:0.14331)
